50
1000
239
236
235
234
232
232
230
230
230
230
228
226
225
223
220
218
217
217
216
215
214
213
213
210
210
209
209
206
206
205
205
198
197
196
196
196
196
192
189
186
184
180
176
174
172
167
164
164
164
163
